!   File created by MacMolPlt 4
 $CONTRL SCFTYP=RHF RUNTYP=OPTIMIZE EXETYP=RUN MAXIT=30 MULT=1 LOCAL=NONE $END
 $SYSTEM TIMLIM=600 $END
 $BASIS GBASIS=STO NGAUSS=2 $END
 $STATPT OPTTOL=0.0001 NSTEP=20 $END
 $DATA 
Methylene...1-A-1 state...RHF/STO-2G
CNV 2

C     6.0     0.00000     0.00000    -0.15849
H     1.0    -0.85694     0.00000     0.56957
H     1.0     0.85694     0.00000     0.56957
 $END

